 ! --------------------------------------------------- CP Optimizer 22.1.1.0 --
 ! Satisfiability problem - 72700 variables, 1046250 constraints
 ! Presolve      : 45000 extractables eliminated
 ! TimeLimit            = 3600
 ! Workers              = 1
 ! Initial process time : 9.38s (9.35s extraction + 0.04s propagation)
 !  . Log search space  : 752473.8 (before), 752473.8 (after)
 !  . Memory usage      : 587.2 MB (before), 587.2 MB (after)
 ! Using sequential search.
 ! ----------------------------------------------------------------------------
 !               Branches  Non-fixed            Branch decision
                     1099      71823        F          presenceOf(copy_bus_parking:42_0)
                     2276      70105        F          presenceOf(copy_trips:0_0)
                     3000      69078                   presenceOf(copy_lane_parking:4_165)
                     4000      27002                   presenceOf(copy_lane_parking:3_330)
                     5000      47677                   presenceOf(copy_lane_parking:6_442)
                     6000      25377                  !presenceOf(copy_trips:0_327)
                     7000      25377                   presenceOf(copy_lane_parking:0_214)
                     8000      61030                   presenceOf(copy_lane_parking:7_184)
                     9000      46245                   presenceOf(copy_lane_parking:6_98)
                    10000      25224        F          presenceOf(copy_bus_parking:5_303)
                    11000      25224                   presenceOf(copy_trips:16_367)
                    12000      46375                   presenceOf(copy_lane_parking:8_81)
                    13000      46346                   presenceOf(copy_lane_parking:2_172)
                    14000      50151                   presenceOf(copy_lane_parking:5_424)
                    15000      66976        F          presenceOf(copy_trips:22_0)
                    16000      31091                  !presenceOf(copy_bus_parking:12_43)
                    17000      31091                  !presenceOf(copy_trips:41_36)
                    18000      50501        F          presenceOf(copy_bus_parking:28_25)
                    19000      49638        F          presenceOf(copy_bus_parking:32_25)
                    20000      50611                  !presenceOf(copy_bus_parking:22_51)
 ! Time = 67.99s, Average fail depth = 428, Memory usage = 2.1 GB
 !               Branches  Non-fixed            Branch decision
                    21000      46224                  !presenceOf(copy_bus_parking:48_446)
                    22000      46221                  !presenceOf(copy_trips:29_2)
                    23000      66788                  !presenceOf(copy_trips:6_0)
                    24000      66925        F          presenceOf(copy_trips:14_1)
                    25000      66927        F          presenceOf(copy_trips:6_0)
                    26000      46503        F          presenceOf(copy_bus_parking:29_442)
                    27000      46503                   presenceOf(copy_lane_parking:0_373)
                    28000      41702                   presenceOf(copy_lane_parking:0_148)
                    29000      51331                   presenceOf(copy_trips:1_21)
                    30000      50622        F          presenceOf(copy_bus_parking:28_38)
                    31000      50622                  !presenceOf(copy_bus_parking:9_39)
                    32000      50619                  !presenceOf(copy_bus_parking:47_39)
                    33000      46369        F          presenceOf(copy_trips:37_444)
                    34000      46369        F          presenceOf(copy_bus_parking:1_2)
                    35000      61604                   presenceOf(copy_trips:43_64)
                    36000      52456                   presenceOf(copy_lane_parking:3_351)
                    37000      46224                   presenceOf(copy_lane_parking:5_414)
                    38000      62906                   presenceOf(copy_lane_parking:0_72)
                    39000      25227                  !presenceOf(copy_trips:25_333)
                    40000      25227                   presenceOf(copy_lane_parking:7_16)
 ! Time = 121.19s, Average fail depth = 473, Memory usage = 2.1 GB
 !               Branches  Non-fixed            Branch decision
                    41000      46233                  !presenceOf(copy_trips:18_444)
                    42000      46233                  !presenceOf(copy_trips:1_442)
                    43000      46233                  !presenceOf(copy_trips:12_444)
                    44000      37809                   presenceOf(copy_trips:48_403)
                    45000      25238                   presenceOf(copy_bus_parking:19_3)
                    46000      66513                   presenceOf(copy_lane_parking:1_244)
                    47000      40516        F          presenceOf(copy_bus_parking:16_18)
                    48000      36317                  !presenceOf(copy_trips:44_86)
                    49000      36190                  !presenceOf(copy_bus_parking:8_60)
                    50000      36123        F         !presenceOf(copy_bus_parking:20_58)
                    51000      36326        F          presenceOf(copy_bus_parking:20_58)
                    52000      36123                  !presenceOf(copy_bus_parking:4_60)
                    53000      36190                  !presenceOf(copy_bus_parking:3_60)
                    54000      36123                  !presenceOf(copy_bus_parking:44_60)
                    55000      36326                  !presenceOf(copy_bus_parking:37_58)
                    56000      35827        F          presenceOf(copy_bus_parking:6_64)
                    57000      35827                   presenceOf(copy_bus_parking:20_58)
                    58000      36123        F         !presenceOf(copy_bus_parking:43_60)
                    59000      35827                  !presenceOf(copy_trips:2_83)
                    60000      35859        F          presenceOf(copy_bus_parking:25_23)
 ! Time = 157.13s, Average fail depth = 550, Memory usage = 2.1 GB
 !               Branches  Non-fixed            Branch decision
                    61000      48716        F         !presenceOf(copy_bus_parking:5_81)
                    62000      50665                  !presenceOf(copy_trips:13_38)
                    63000      25474        F          presenceOf(copy_trips:35_327)
                    64000      25474                   presenceOf(copy_lane_parking:7_175)
                    65000      46227        F          presenceOf(copy_bus_parking:28_442)
                    66000      46227        F          presenceOf(copy_bus_parking:23_442)
                    67000      46227        F          presenceOf(copy_bus_parking:13_442)
                    68000      46230        F          presenceOf(copy_trips:11_5)
                    69000      58659            488  = startOf(charge:19_15)
                    70000      53840                   presenceOf(copy_lane_parking:5_180)
                    71000      32242                   presenceOf(copy_lane_parking:1_262)
                    72000      46224        F          presenceOf(copy_trips:16_443)
                    73000      46227        F          presenceOf(copy_trips:28_7)
                    74000      65330                   presenceOf(copy_bus_parking:19_2)
                    75000      65331        F          presenceOf(copy_trips:36_7)
                    76000      65331        F         !presenceOf(copy_bus_parking:45_10)
                    77000      65310                  !presenceOf(copy_trips:18_7)
                    78000      65313                  !presenceOf(copy_bus_parking:10_2)
                    79000      65313        F         !presenceOf(copy_trips:1_3)
                    80000      65540                   presenceOf(copy_trips:19_1)
 ! Time = 202.89s, Average fail depth = 532, Memory usage = 2.1 GB
 !               Branches  Non-fixed            Branch decision
                    81000      65331                  !presenceOf(copy_trips:27_3)
                    82000      65331        F         !presenceOf(copy_bus_parking:1_4)
                    83000      65330                   presenceOf(copy_trips:1_7)
                    84000      65330        F          presenceOf(copy_trips:0_7)
                    85000      65310                   presenceOf(copy_trips:10_3)
                    86000      65313                   presenceOf(copy_trips:48_3)
                    87000      66456                   presenceOf(copy_lane_parking:4_401)
                    88000      46503                   presenceOf(copy_lane_parking:0_323)
                    89000      25232                  !presenceOf(copy_trips:36_15)
                    90000      56211                   presenceOf(copy_trips:29_11)
                    91000      51325                  !presenceOf(copy_trips:35_136)
                    92000      38360                   presenceOf(copy_trips:3_218)
                    93000      24765        F          presenceOf(copy_trips:48_293)
                    94000       7508                  !presenceOf(copy_trips:41_406)
                    95000       1404        F          presenceOf(copy_trips:23_2)
                    96000      62038                   presenceOf(copy_lane_parking:8_340)
                    97000      29690                  !presenceOf(copy_bus_parking:37_69)
                    98000      30012            613  = startOf(charge:32_32)
                    99000      50553            on charge:0_0
                     100k      60658                  !presenceOf(copy_trips:33_3)
 ! Time = 259.72s, Average fail depth = 511, Memory usage = 2.2 GB
 !               Branches  Non-fixed            Branch decision
                     101k      50539                   presenceOf(copy_bus_parking:21_319)
                     102k      46239                   presenceOf(copy_bus_parking:15_3)
                     103k      49589                  !presenceOf(copy_bus_parking:12_9)
                     104k      25233                  !presenceOf(copy_bus_parking:29_303)
                     105k      25230                   presenceOf(copy_lane_parking:5_327)
                     106k      46494                   presenceOf(copy_lane_parking:3_80)
                     107k      67152                  !presenceOf(copy_trips:48_0)
                     108k      66405        F          presenceOf(copy_trips:20_0)
                     109k      66396        F          presenceOf(copy_trips:20_0)
                     110k      52260                  !presenceOf(copy_trips:19_43)
                     111k      50031        F          presenceOf(copy_trips:37_2)
                     112k      54753                   presenceOf(copy_lane_parking:6_310)
                     113k      25236        F          presenceOf(copy_trips:26_303)
                     114k      25239                   presenceOf(copy_lane_parking:2_211)
                     115k      45580                   presenceOf(copy_lane_parking:3_325)
                     116k      39069        F          presenceOf(copy_bus_parking:8_410)
                     117k      39069                   presenceOf(copy_trips:40_211)
                     118k      25225                   presenceOf(copy_lane_parking:8_337)
                     119k      46378                  !presenceOf(copy_trips:38_444)
                     120k      46378        F          presenceOf(copy_trips:0_446)
 ! Time = 317.02s, Average fail depth = 512, Memory usage = 2.2 GB
 !               Branches  Non-fixed            Branch decision
                     121k      46378        F          presenceOf(copy_trips:2_444)
                     122k      46378                  !presenceOf(copy_trips:22_12)
                     123k      53840        F          presenceOf(copy_trips:29_112)
                     124k      39301                   presenceOf(copy_trips:42_196)
                     125k      39130        F          presenceOf(copy_trips:0_200)
                     126k      39136                   presenceOf(copy_lane_parking:4_113)
                     127k      56771                   presenceOf(copy_trips:46_229)
                     128k      44681        F          presenceOf(copy_trips:30_80)
                     129k      46517                  !presenceOf(copy_trips:6_154)
                     130k      32413            on charge:25_269
                     131k      19527                  !presenceOf(copy_trips:31_318)
                     132k       4324                  !presenceOf(copy_trips:40_413)
                     133k       2739        F          presenceOf(copy_trips:7_434)
                     134k       2739                  !presenceOf(copy_trips:11_434)
                     135k       2742                  !presenceOf(copy_trips:43_434)
                     136k       2748        F          presenceOf(copy_trips:21_375)
                     137k       2748        F          presenceOf(copy_trips:18_434)
                     138k       2748        F         !presenceOf(copy_trips:44_434)
 *                   138k  345.43s                   -
 ! ----------------------------------------------------------------------------
 ! Search completed, 1 solution found.
 ! ----------------------------------------------------------------------------
 ! Number of branches     : 138811
 ! Number of fails        : 47467
 ! Total memory usage     : 2.4 GB (2.3 GB CP Optimizer + 0.0 GB Concert)
 ! Time spent in solve    : 345.45s (336.10s engine + 9.35s extraction)
 ! Search speed (br. / s) : 413.0
 ! ----------------------------------------------------------------------------
